c ---- [ banner ] ------------------------------------------------------------
c
c Kissat SAT Solver
c 
c Copyright (c) 2021-2022 Armin Biere University of Freiburg
c Copyright (c) 2019-2021 Armin Biere Johannes Kepler University Linz
c 
c Version 3.0.0 97917ddf2b12adc6f63c7b2a5a403a1ee7d81836
c gcc (Ubuntu 9.4.0-1ubuntu1~20.04.1) 9.4.0 -W -Wall -O3 -DNDEBUG
c Fri Oct 7 14:23:58 PDT 2022 Linux jap-Lenovo-Yoga-C740-15IML 5.15.0-48-generic x86_64
c
c ---- [ parsing ] -----------------------------------------------------------
c
c opened and reading DIMACS file:
c
c   Pigeon10Holes8
c
c parsed 'p cnf 80 370' header
c closing input after reading 3783 bytes (4 KB)
c finished parsing after 0.00 seconds
c
c ---- [ solving ] -----------------------------------------------------------
c
c  seconds switched rate      trail  variables
c         MB reductions conflicts glue   remaining
c          level restarts redundant irredundant
c
c *  0.00  1 0 0 0  0 0   0   0 0% 0 370 80 99%
c {  0.00  1 0 0 0  0 0   0   0 0% 0 370 80 99%
c u  0.01  3 9 0 0 44 2 665 283 95% 6 370 80 99%
c -  0.01  3 9 0 1 44 2 1000 444 95% 6 370 80 99%
c }  0.01  3 9 1 1 44 2 1000 444 95% 6 370 80 99%
c [  0.01  3 0 1 1 44 0 1000 444 0% 0 370 80 99%
c B  0.01  3 11 1 1 44 7 1001 445 100% 4 370 80 99%
c u  0.01  3 13 1 1 44 1 1330 327 94% 8 370 80 99%
c v  0.01  3 13 1 1 44 1 1330 315 94% 8 370 80 99%
c ]  0.02  3 12 2 1 44 1 1707 687 92% 8 370 80 99%
c {  0.02  3 9 2 1 44 2 1707 687 95% 6 370 80 99%
c -  0.02  3 10 2 2 58 2 2000 596 95% 6 370 80 99%
c }  0.03  3 9 3 2 90 2 2645 1239 95% 6 370 80 99%
c [  0.03  3 12 3 2 90 1 2645 1239 92% 8 370 80 99%
c W  0.03  3 12 3 2 90 1 2645 1239 92% 8 370 80 99%
c u  0.03  3 12 3 2 90 1 2717 418 92% 8 370 80 99%
c v  0.03  3 12 3 2 90 1 2717 394 92% 8 370 80 99%
c e  0.04  3 13 3 2 90 1 3327 999 93% 8 360 70 86%
c ^  0.04  3 13 3 2 90 1 3327 999 93% 8 360 70 86%
c -  0.04  3 13 3 3 90 1 3414 149 93% 8 360 70 86%
c
c  seconds  switched rate         trail  variables
c         MB reductions conflicts    glue    remaining
c          level restarts  redundant irredundant
c
c ]  0.05  3 14 4 3 91 1 4631 1326 94% 9 360 70 86%
c {  0.05  3 9 4 3 91 2 4631 1326 95% 6 360 70 86%
c u  0.05  3 9 4 3 140 2 4869 1517 95% 6 360 70 86%
c v  0.05  3 9 4 3 140 2 4869 1506 95% 6 360 70 86%
c -  0.06  3 9 4 4 158 2 5147 977 95% 6 360 70 86%
c }  0.07  3 9 5 4 202 2 5923 1747 95% 6 360 70 86%
c [  0.07  3 14 5 4 202 1 5923 1747 94% 9 360 70 86%
c I  0.07  3 14 5 4 202 1 5923 1747 94% 9 360 70 86%
c ^  0.08  3 17 5 4 202 1 6624 2352 93% 11 360 70 86%
c -  0.08  3 18 5 5 203 1 7149 1625 92% 12 360 70 86%
c u  0.09  3 19 5 5 203 1 7805 2202 93% 12 360 70 86%
c v  0.10  3 19 5 5 203 1 7805 2179 93% 12 360 70 86%
c ]  0.10  3 19 6 5 204 1 8407 2774 93% 12 360 70 86%
c {  0.10  3 9 6 5 204 2 8407 2774 95% 6 360 70 86%
c -  0.12  3 9 6 6 332 2 9385 1991 95% 6 360 70 86%
c }  0.13  3 9 7 6 473 2 10882 3469 95% 6 360 70 86%
c [  0.13  3 19 7 6 473 1 10882 3469 93% 12 360 70 86%
c B  0.13  3 19 7 6 473 1 10882 3469 93% 12 360 70 86%
c u  0.15  3 19 7 6 473 1 11584 4015 93% 12 360 70 86%
c v  0.15  3 19 7 6 473 1 11584 3982 93% 12 360 70 86%
c
c  seconds  switched  rate          trail   variables
c         MB reductions conflicts       glue    remaining
c          level restarts    redundant  irredundant
c
c -  0.15  3 19 7 7 473 1 11838 2490 93% 12 360 70 86%
c ]  0.18  4 18 8 7 475 1 13616 4156 92% 12 360 70 86%
c {  0.18  4 9 8 7 475 2 13616 4156 95% 6 360 70 86%
c ^  0.18  4 9 8 7 512 2 13775 4312 95% 6 360 70 86%
c -  0.19  4 9 8 8 597 2 14483 2694 95% 6 360 70 86%
c u  0.22  4 9 8 8 648 2 16234 1467 95% 6 360 70 86%
c v  0.22  4 9 8 8 648 2 16234 1407 95% 6 360 70 86%
c -  0.23  4 9 8 9 703 2 17311 1496 95% 6 360 70 86%
c }  0.23  4 9 9 9 705 2 17355 1540 95% 6 360 70 86%
c [  0.23  4 18 9 9 705 1 17355 1540 92% 12 360 70 86%
c W  0.23  4 18 9 9 705 1 17355 1540 92% 12 360 70 86%
c i  0.25  4 17 9 9 706 1 18781 2909 91% 11 360 69 85%
c -  0.27  4 17 9 10 707 1 20313 1479 91% 11 351 69 85%
c u  0.29  4 17 9 10 708 1 21791 2827 91% 11 351 69 85%
c v  0.29  4 17 9 10 708 1 21791 2804 91% 11 351 69 85%
c ]  0.29  4 17 10 10 708 1 21807 2817 91% 11 351 69 85%
c {  0.29  4 9 10 10 708 2 21807 2817 95% 6 351 69 85%
c i  0.31  4 9 10 10 777 2 22654 3634 94% 6 351 68 84%
c -  0.32  4 9 10 11 915 2 23475 1315 94% 6 342 68 84%
c ^  0.34  4 9 10 11 1139 2 25291 3114 94% 6 342 68 84%
c
c  seconds  switched    rate          trail  variables
c         MB  reductions  conflicts      glue    remaining
c          level   restarts    redundant irredundant
c
c }  0.35  4 9 11 11 1178 2 26065 3880 94% 6 342 68 84%
c [  0.35  4 17 11 11 1178 1 26065 3880 91% 11 342 68 84%
c O  0.35  4 17 11 11 1178 1 26065 3880 91% 11 342 68 84%
c -  0.36  4 17 11 12 1178 1 26794 2889 91% 11 342 68 84%
c u  0.38  4 16 11 12 1180 1 28227 4176 91% 11 342 68 84%
c v  0.38  4 16 11 12 1180 1 28227 4096 91% 11 342 68 84%
c -  0.41  4 16 11 13 1180 1 30260 3394 91% 11 342 68 84%
c i  0.42  4 16 11 13 1181 1 30569 3696 91% 11 342 67 83%
c ]  0.44  4 16 12 13 1182 1 31877 4972 91% 11 342 67 83%
c {  0.44  4 9 12 13 1182 2 31877 4972 94% 6 342 67 83%
c -  0.48  4 9 12 14 1332 2 33867 2727 94% 6 333 67 83%
c i  0.48  4 9 12 14 1350 2 34188 3042 94% 6 333 66 81%
c u  0.50  4 9 12 14 1544 2 35550 1012 94% 6 333 66 81%
c v  0.51  4 9 12 14 1544 2 35550 988 94% 6 333 66 81%
c }  0.51  4 9 13 14 1554 2 36100 1538 94% 6 333 66 81%
c [  0.51  4 16 13 14 1554 1 36100 1538 91% 11 333 66 81%
c B  0.51  4 16 13 14 1554 1 36100 1538 91% 11 333 66 81%
c -  0.53  4 17 13 15 1555 1 37608 1226 91% 11 325 66 81%
c i  0.56  4 17 13 15 1556 1 39752 3271 91% 11 325 65 80%
c ^  0.59  4 17 13 15 1557 1 41379 4828 91% 11 317 65 80%
c
c  seconds   switched    rate          trail   variables
c         MB   reductions  conflicts       glue    remaining
c          level    restarts    redundant  irredundant
c
c -  0.59  4 17 13 16 1558 1 41482 1518 91% 11 317 65 80%
c ]  0.60  4 17 14 16 1558 1 42330 2343 91% 11 317 65 80%
c {  0.60  4 9 14 16 1558 2 42330 2343 94% 6 317 65 80%
c u  0.63  3 9 14 16 1692 2 43764 3061 94% 6 317 65 80%
c v  0.63  3 9 14 16 1692 2 43764 3048 94% 6 317 65 80%
c i  0.65  3 9 14 16 1703 2 44635 3908 94% 6 317 64 79%
c -  0.66  3 9 14 17 1722 2 45483 2057 94% 6 308 64 79%
c i  0.67  3 9 14 17 1734 2 46244 2806 93% 6 308 63 78%
c i  0.68  3 9 14 17 1747 2 46811 3364 93% 6 308 62 77%
c i  0.70  3 9 14 17 1853 2 48255 4794 93% 6 308 61 75%
c }  0.71  3 9 15 17 1911 2 49086 5611 93% 6 308 61 75%
c [  0.71  3 17 15 17 1911 1 49086 5611 91% 11 308 61 75%
c W  0.71  3 17 15 17 1911 1 49086 5583 91% 11 285 61 75%
c -  0.72  3 16 15 18 1911 1 49606 1531 91% 11 285 61 75%
c i  0.74  3 16 15 18 1913 1 51511 3383 91% 11 285 60 74%
c u  0.77  4 16 15 18 1913 1 52812 2864 91% 11 285 60 74%
c v  0.77  4 16 15 18 1913 1 52812 2816 91% 11 285 60 74%
c -  0.79  4 16 15 19 1914 1 53850 1898 91% 11 279 60 74%
c ]  0.82  4 16 16 19 1916 1 55901 3907 91% 11 279 60 74%
c {  0.82  4 9 16 19 1916 2 55901 3907 93% 6 279 60 74%
c
c  seconds  switched    rate          trail  variables
c         MB  reductions  conflicts      glue    remaining
c          level   restarts    redundant irredundant
c
c i  0.83  4 9 16 19 1925 2 56291 4294 93% 6 279 59 73%
c i  0.84  4 9 16 19 1933 2 56507 4506 93% 6 279 58 72%
c i  0.84  4 9 16 19 1933 2 56536 4534 93% 6 279 57 70%
c i  0.84  4 9 16 19 1933 2 56540 4537 93% 6 279 48 59%
c i  0.84  4 9 16 19 1933 2 56738 4732 93% 6 279 39 48%
c i  0.84  4 9 16 19 1933 2 56781 4774 93% 6 279 38 47%
c i  0.84  4 9 16 19 1933 2 56790 4782 93% 6 279 37 46%
c i  0.84  4 9 16 19 1933 2 56799 4790 93% 6 279 36 44%
c i  0.84  4 9 16 19 1933 2 56848 4836 93% 6 279 16 20%
c }  0.84  4 9 16 19 1933 2 56851 4837 93% 6 279 12 15%
c 0  0.84  4 9 16 19 1933 2 56851 4837 93% 6 279 12 15%
c
c ---- [ result ] ------------------------------------------------------------
c
s UNSATISFIABLE
c
c ---- [ profiling ] ---------------------------------------------------------
c
c           0.77   90.97 %  search
c           0.42   49.69 %  stable
c           0.35   41.26 %  focused
c           0.08    9.01 %  simplify
c           0.07    8.28 %  probe
c           0.05    6.07 %  vivify
c           0.01    1.64 %  reduce
c           0.01    1.21 %  substitute
c           0.01    0.92 %  sweep
c           0.01    0.60 %  eliminate
c           0.00    0.13 %  walking
c           0.00    0.08 %  backbone
c           0.00    0.02 %  warmup
c           0.00    0.02 %  parse
c           0.00    0.01 %  subsume
c =============================================
c           0.84  100.00 %  total
c
c ---- [ statistics ] --------------------------------------------------------
c
c conflicts:                            56851            67450.83 per second
c decisions:                            83287                1.47 per conflict
c eliminated:                              10               12 %  variables
c propagations:                        832976           988284    per second
c reductions:                              19             2992    interval
c rephased:                                 8             7106    interval
c restarts:                              1933               29.41 interval
c strengthened:                           348              145 %  checks
c subsumed:                                26               11 %  checks
c vivified:                              8004               95 %  checks
c walk_improved:                            3              100 %  walks
c walks:                                    3            18950    interval
c
c ---- [ resources ] ---------------------------------------------------------
c
c maximum-resident-set-size:          4423680 bytes          4 MB
c process-time:                             1s               0.84 seconds
c
c ---- [ shutting down ] -----------------------------------------------------
c
c exit 20
